tsp_instances/TSP20/instance78.tsp
NODE_COORD_SECTION
0 196 185
1 71 15
2 2 38
3 184 195
4 3 183
5 4 100
6 140 189
7 35 121
8 124 143
9 193 58
10 4 55
11 95 9
12 0 147
13 31 51
14 43 180
15 159 61
16 166 167
17 0 89
18 96 46
19 61 179
