tsp_instances/TSP20/instance78.opt.tour
TOUR_SECTION
1
4
7
9
20
15
5
13
8
6
18
11
3
14
2
12
19
16
10
17
-1